17	4	3
29	24	34	23	25	23	18	
0	0	0	0	0	4	2	6	7	9	2	3	2	3	4
10	0	3	0	6	5	3	3	5	6	5	3	5	7	12
8	7	0	4	7	1	3	4	3	1	5	3	5	6	14
5	3	1	7	9	9	6	5	4	1	7	3	5	6	17
2	1	5	7	8	7	9	10	2	5	4	1	17
125	5	3	9	5	10	8	6	5	4	4	3	8	9	17
250	1	3	8	7	7	9	6	9	3	2	2	8	14
75	4	0	1	7	3	3	4	7	6	5	3	11	15	17
150	10	9	5	10	1	4	10	6	7	10	1	10
100	1	0	0	6	2	4	9	2	5	3	3	13	16	17
100	10	0	7	4	5	5	1	10	10	5	1	17
250	2	7	10	1	3	6	3	9	5	6	2	17	17
2	7	1	0	0	10	8	9	4	4	4	2	17	17
2	2	9	7	10	9	5	7	8	1	3	2	16	17
1	0	9	10	10	8	3	7	7	4	2	2	17	17
10	3	4	9	0	10	8	6	10	8	6	1	17
0	0	0	0	0	4	1	2	6	10	6	0
